SCIP version 5.0.0 [precision: 8 byte] [memory: block] [mode: optimized] [LP solver: NONE] [GitHash: 3bbd232]
Copyright (C) 2002-2017 Konrad-Zuse-Zentrum fuer Informationstechnik Berlin (ZIB)

External codes: 
  Readline EditLine w  GNU library for command line editing (gnu.org/s/readline)
  CppAD 20160000.1     Algorithmic Differentiation of C++ algorithms developed by B. Bell (www.coin-or.org/CppAD)
  ZLIB 1.2.5           General purpose compression library by J. Gailly and M. Adler (zlib.net)
  GMP 6.1.2            GNU Multiple Precision Arithmetic Library developed by T. Granlund (gmplib.org)

user parameter file <scip.set> not found - using default parameters

read problem <../../Split_data/output/statG/3/1_sample_statG.logreg>
============

File name	:	../../Split_data/output/statG/3/1_sample_statG.logreg
Problem name 	:	1_sample_statG
Number of data	:	800
Number of var	:	61
The given data has linear dependence
13 sets of column vector are linearly dependent:

[dim=1] time: 0.041043
[dim=2] time: 0.084955
[dim=3] time: 0.124715
[dim=4] time: 0.167409
[dim=5] time: 0.208621
[dim=6] time: 0.252411
[dim=7] time: 0.295714
[dim=8] time: 0.340272
[dim=9] time: 0.384893
[dim=10] time: 0.437251
[dim=11] time: 0.47921
[dim=12] time: 0.52007
[dim=13] time: 0.559038
[dim=14] time: 0.597288
[dim=15] time: 0.635075
[dim=16] time: 0.679827
[dim=17] time: 0.719254
[dim=18] time: 0.759142
[dim=19] time: 0.79899
[dim=20] time: 0.839021
[dim=21] time: 0.878835
[dim=22] Time of forward = 0.917516sec.
AIC: 768.328
k: 21

[dim=48] time: 0.187855
[dim=47] time: 0.324075
[dim=46] time: 0.499224
[dim=45] time: 0.644436
[dim=44] time: 0.770299
[dim=43] time: 0.925644
[dim=42] time: 1.02728
[dim=41] time: 1.16633
[dim=40] time: 1.28458
[dim=39] time: 1.39178
[dim=38] time: 1.51911
[dim=37] time: 1.62224
[dim=36] time: 1.72144
[dim=35] time: 1.7932
[dim=34] time: 1.90822
[dim=33] time: 1.98923
[dim=32] time: 2.06638
[dim=31] time: 2.14029
[dim=30] time: 2.20315
[dim=29] time: 2.27012
[dim=28] time: 2.33659
[dim=27] Time of backward = 2.39757sec.
AIC: 774.043
k: 28
